Route 1: 0 33 68 77 20 92 17 15 97 19 28 91 16 0
Route 2: 0 46 64 40 9 29 60 65 53 67 52 76 37 0
Route 3: 0 51 1 88 62 23 73 26 98 13 32 80 78 0
Route 4: 0 27 34 48 95 7 47 0
Route 5: 0 44 45 57 74 8 35 70 12 55 96 0
Route 6: 0 36 59 18 3 50 63 22 31 82 75 99 0
Route 7: 0 6 49 42 86 66 58 5 94 0
Route 8: 0 79 100 39 25 85 90 54 69 81 4 0
Route 9: 0 2 21 38 41 71 83 10 24 0
Route 10: 0 11 84 89 72 14 30 87 56 0
Route 11: 0 61 93 43 0
